Route 1: 0 57 27 83 96 33 67 5 36 18 61 48 0
Route 2: 0 15 38 52 32 24 22 0
Route 3: 0 62 98 87 75 20 69 43 13 37 95 90 0
Route 4: 0 6 31 82 16 40 100 28 78 51 0
Route 5: 0 56 97 68 42 35 94 26 29 1 60 64 0
Route 6: 0 14 47 4 79 9 88 39 3 86 99 53 73 0
Route 7: 0 70 17 66 10 46 44 25 65 11 49 8 0
Route 8: 0 45 7 2 63 92 76 84 71 85 0
Route 9: 0 91 54 58 80 93 23 12 30 0
Route 10: 0 81 55 34 89 41 50 72 0
Route 11: 0 59 74 77 19 21 0
